TCS_Benchmarks/redos_fix/corpus1_output_distinct_1557_1556_16_0.txt
([^\s:]+)(\S*)
([^\s:]+)(:?(\d+)?\/)(\S*)